c read Graph
c width = 239
c time = 143 ms
c width = 21
c time = 285 ms
c width = 20
c time = 353 ms
c width = 19
c time = 435 ms
c width = 18
c time = 458 ms
c width = 17
c time = 858 ms
c width = 16
c time = 2556 ms
c width = 16
c time = 4980 ms
s td 214 17 252
b 1 1 2 19
b 2 2 3 19 20
b 3 16 17 35 36
b 4 3 19 20 37
b 5 16 35 36 54
b 6 199 217 218 236
b 7 216 233 234 251
b 8 199 218 236 237
b 9 216 233 250 251
b 10 3 4 5 22
b 11 3 5 21 22 38 55
b 12 5 21 22 38 40 55 57
b 13 5 22 38 40 55 57 74
b 14 5 22 40 55 57 74 91
b 15 5 22 24 40 41 57 74 91
b 16 5 24 40 41 57 59 74 76 91
b 17 5 24 41 57 59 74 76 91 93
b 18 5 24 41 59 74 76 91 93 110
b 19 5 24 41 43 59 60 76 91 93 110
b 20 5 24 43 59 60 76 78 91 93 95 110
b 21 5 24 43 60 76 78 91 93 95 110 112
b 22 5 24 43 60 78 91 93 95 110 112 129
b 23 93 110 111 112 129
b 24 5 24 43 60 62 78 79 91 95 110 112 129
b 25 43 60 61 62 79
b 26 5 24 43 62 78 79 91 95 98 110 112 115 129 131 132
b 27 78 79 95 98 112 114 115 131 132
b 28 78 79 95 97 98 114 115
b 29 78 95 96 97 114
b 30 95 112 113 114 131
b 31 5 24 43 62 79 81 91 98 110 112 115 129 131 132
b 32 62 79 80 81 98
b 33 5 9 24 28 43 47 62 64 81 91 98 110 112 115 129 131 132
b 34 5 9 24 28 43 45 47 62 64 81
b 35 28 45 46 47 64
b 36 5 9 24 26 28 43 45 62
b 37 26 43 44 45 62
b 38 5 7 9 24 26 43
b 39 5 6 7 24
b 40 7 8 9 26
b 41 7 24 25 26 43
b 42 9 26 27 28 45
b 43 45 62 63 64 81
b 44 9 28 47 64 81 91 98 110 112 115 129 131 132 146 163
b 45 9 28 47 64 81 98 112 115 129 130 131 132 146 163
b 46 9 28 47 64 81 98 115 129 130 131 132 146 148 163 165
b 47 9 28 47 64 81 98 115 131 132 146 148 149 163 165
b 48 9 28 47 64 81 98 115 132 146 148 149 163 165 166
b 49 9 28 47 64 81 98 115 132 146 149 163 165 166 185 204 223 240
b 50 9 28 47 64 81 98 115 132 149 165 166 168 185 187 204 223 240
b 51 149 165 166 167 168 185 187 204 223 240
b 52 168 185 186 187 204 223 240
b 53 9 28 47 64 81 98 115 132 134 149 153 168 170 187 204 223 240
b 54 115 132 134 149 153 168 170 187 204 223 240
b 55 115 132 134 149 151 153 168 170 187
b 56 132 149 150 151 168
b 57 151 168 169 170 187
b 58 134 151 152 153 170
b 59 115 132 133 134 151
b 60 9 28 47 64 81 98 115 117 134 153 170 187 204 223 240
b 61 98 115 116 117 134
b 62 9 28 47 64 81 98 117 134 136 153 170 187 204 223 240
b 63 9 28 47 64 81 98 117 136 153 170 187 204 206 223 240
b 64 9 28 47 64 81 98 117 136 153 170 187 189 206 223 240
b 65 9 28 47 64 81 98 117 136 153 170 189 206 208 223 227 240 244
b 66 9 28 47 64 81 98 117 136 153 155 170 174 189 191 208 227 244
b 67 136 153 155 170 172 174 189 191 208
b 68 136 153 154 155 172
b 69 172 189 190 191 208
b 70 155 172 173 174 191
b 71 153 170 171 172 189
b 72 9 28 47 64 81 98 117 136 155 174 191 208 210 227 244
b 73 191 208 209 210 227
b 74 9 28 47 64 81 98 117 136 155 174 191 193 210 227 244
b 75 9 28 47 64 81 83 98 102 117 119 136 155 174 193 210 227 244
b 76 64 81 83 98 102 117 119 136 155 174 193 210 227 244
b 77 64 81 83 98 100 102 117 119 136
b 78 100 117 118 119 136
b 79 81 98 99 100 117
b 80 64 81 82 83 100
b 81 83 100 101 102 119
b 82 9 28 47 64 66 83 102 119 136 155 174 193 210 227 244
b 83 47 64 65 66 83
b 84 174 191 192 193 210
b 85 189 206 208 223 225 227 240 244
b 86 206 223 225 240 242 244
b 87 223 240 241 242
b 88 225 242 243 244
b 89 206 223 224 225 242
b 90 208 225 226 227 244
b 91 189 206 207 208 225
b 92 170 187 188 189 206
b 93 187 204 205 206 223
b 94 117 134 135 136 153
b 95 146 163 165 166 185 204 221 223 240
b 96 146 163 165 166 185 202 204 221 240
b 97 146 163 165 166 183 185 202 221 240
b 98 166 183 184 185 202
b 99 146 163 165 182 183 202 221 240
b 100 146 163 164 165 182
b 101 163 182 183 202 221 238 240
b 102 221 238 239 240
b 103 163 182 183 202 219 221 238
b 104 163 182 183 200 202 219 238
b 105 163 182 199 200 219 238
b 106 199 200 219 237 238
b 107 199 200 218 219 237
b 108 163 181 182 199
b 109 183 200 201 202 219
b 110 202 219 220 221 238
b 111 185 202 203 204 221
b 112 204 221 222 223 240
b 113 129 146 147 148 165
b 114 91 110 127 129 146 163
b 115 110 127 128 129 146
b 116 127 145 146 163
b 117 91 109 110 127
b 118 76 93 94 95 112
b 119 59 76 77 78 95
b 120 24 41 42 43 60
b 121 74 91 92 93 110
b 122 57 74 75 76 93
b 123 40 57 58 59 76
b 124 5 22 23 24 41
b 125 55 73 74 91
b 126 38 55 56 57 74
b 127 21 38 39 40 57
b 128 3 21 37 38 55
b 129 3 20 21 37 38
b 130 9 28 47 66 83 85 102 119 136 155 174 193 210 227 244
b 131 9 28 47 66 85 102 119 136 138 155 174 193 210 227 244
b 132 9 28 47 66 85 102 119 138 155 157 174 193 210 227 244
b 133 9 28 47 66 85 102 104 119 123 138 140 157 174 193 210 227 244
b 134 9 28 47 66 85 104 123 140 142 157 161 174 180 193 210 227 244
b 135 138 155 156 157 174
b 136 119 136 137 138 155
b 137 85 102 104 119 121 123 138 140 157
b 138 85 102 103 104 121
b 139 104 121 122 123 140
b 140 121 138 139 140 157
b 141 102 119 120 121 138
b 142 66 83 84 85 102
b 143 9 28 47 66 85 89 104 106 108 123 142 161 180
b 144 89 106 108 123 125 142 161 180
b 145 108 125 142 144 161 180
b 146 108 125 126 144
b 147 125 142 143 144 161
b 148 144 161 162 180
b 149 89 106 107 108 125
b 150 106 123 124 125 142
b 151 9 13 28 32 47 49 66 85 89 104 106 108 123
b 152 9 13 28 30 32 47 49 66
b 153 30 47 48 49 66
b 154 13 30 31 32 49
b 155 9 11 13 28 30 47
b 156 9 10 11 28
b 157 11 28 29 30 47
b 158 11 12 13 30
b 159 13 32 49 66 85 87 89 104 106 108 123
b 160 13 32 49 66 68 85 87 89 104 106 108
b 161 49 66 67 68 85
b 162 68 85 86 87 104
b 163 13 32 49 68 70 87 89 106 108
b 164 70 87 88 89 106
b 165 13 32 49 51 68 70 87 89 108
b 166 13 32 51 70 72 89 108
b 167 72 89 90 108
b 168 13 15 32 51 70 72 89
b 169 15 32 51 53 70 72 89
b 170 15 32 34 51 53 70 72
b 171 15 34 53 54 72
b 172 15 16 34 53 54
b 173 16 34 35 53 54
b 174 34 51 52 53 70
b 175 15 32 33 34 51
b 176 53 70 71 72 89
b 177 13 14 15 32
b 178 32 49 50 51 68
b 179 51 68 69 70 87
b 180 87 104 105 106 123
b 181 123 140 142 157 161 174 176 180 193 210 227 244
b 182 157 174 175 176 193
b 183 123 140 142 157 159 161 176 180 193 210 227 244
b 184 142 159 161 176 180 193 210 227 229 244 248
b 185 142 159 161 176 180 193 210 212 229 248
b 186 193 210 211 212 229
b 187 142 159 161 176 180 193 195 212 229 248
b 188 176 193 194 195 212
b 189 142 159 161 176 178 180 195 212 229 248
b 190 142 159 160 161 178
b 191 159 176 177 178 195
b 192 161 178 180 195 212 229 231 248
b 193 212 229 230 231 248
b 194 161 178 180 195 197 212 231 248
b 195 161 178 179 180 197
b 196 178 180 195 197 212 214 231 248
b 197 180 197 214 231 248 250
b 198 231 248 249 250
b 199 180 197 214 216 231 250
b 200 180 197 198 216
b 201 197 214 216 231 232 250
b 202 197 214 215 216 232 250
b 203 215 216 232 233 250
b 204 178 195 196 197 214
b 205 195 212 213 214 231
b 206 210 227 229 244 246 248
b 207 210 227 228 229 246
b 208 227 244 245 246
b 209 229 246 247 248
b 210 123 140 141 142 159
b 211 140 157 158 159 176
b 212 234 251 252
b 213 217 235 236
b 214 17 18 36
1 2
2 4
3 214
3 5
4 129
5 173
6 213
6 8
7 212
7 9
8 107
9 203
10 11
11 128
11 12
12 127
12 13
13 126
13 14
14 125
14 15
15 124
15 16
16 123
16 17
17 122
17 18
18 121
18 19
19 120
19 20
20 119
20 21
21 118
21 22
22 24
22 23
24 26
24 25
26 31
26 27
27 28
27 30
28 29
31 33
31 32
33 44
33 34
34 35
34 36
34 43
36 37
36 38
36 42
38 40
38 41
38 39
44 114
44 45
45 46
46 113
46 47
47 48
48 49
49 95
49 50
50 53
50 52
50 51
53 60
53 54
54 55
55 57
55 58
55 59
55 56
60 62
60 61
62 94
62 63
63 93
63 64
64 92
64 65
65 85
65 66
66 72
66 67
67 70
67 68
67 69
67 71
72 74
72 73
74 84
74 75
75 82
75 76
76 77
77 78
77 79
77 80
77 81
82 130
82 83
85 86
85 90
85 91
86 87
86 88
86 89
95 112
95 96
96 97
96 111
97 98
97 99
99 100
99 101
101 102
101 103
103 110
103 104
104 109
104 105
105 108
105 106
106 107
114 115
114 116
114 117
128 129
130 142
130 131
131 136
131 132
132 135
132 133
133 137
133 134
134 181
134 143
137 138
137 141
137 139
137 140
143 144
143 151
144 149
144 150
144 145
145 146
145 148
145 147
151 152
151 159
152 154
152 153
152 155
155 156
155 158
155 157
159 180
159 160
160 161
160 162
160 163
163 164
163 165
165 178
165 179
165 166
166 167
166 168
168 177
168 169
169 176
169 170
170 171
170 175
170 174
171 172
172 173
181 182
181 183
183 210
183 211
183 184
184 206
184 185
185 186
185 187
187 188
187 189
189 190
189 191
189 192
192 193
192 194
194 195
194 196
196 204
196 205
196 197
197 198
197 199
199 200
199 201
201 202
202 203
206 208
206 209
206 207
